batch 36903438
making test directory
Fri Jan 9 06:27:00 EST 2026
LAMMPS (22 Jul 2025)
KOKKOS mode with Kokkos version 4.6.2 is enabled
  will use up to 4 GPU(s) per node
WARNING: When using a single thread, the Kokkos Serial backend (i.e. Makefile.kokkos_mpi_only) gives better performance than the OpenMP backend (src/KOKKOS/kokkos.cpp:221)
WARNING: Turning off GPU-aware MPI since it is not detected, use '-pk kokkos gpu/aware on' to override (src/KOKKOS/kokkos.cpp:310)
  using 1 OpenMP thread(s) per MPI task
Reading data file ...
  orthogonal box = (0 0 0) to (178.6 178.6 178.6)
  1 by 2 by 2 MPI processor grid
  reading atoms ...
  1000000 atoms
  read_data CPU = 2.147 seconds
SNAP Element = C, Radius 0.5, Weight 1
SNAP keyword rcutfac 2.7
SNAP keyword twojmax 8
SNAP keyword rfac0 0.99363
SNAP keyword rmin0 0.0
SNAP keyword bzeroflag 0
SNAP keyword quadraticflag 1
20000 atoms in group bottom
980000 atoms in group mobile
ERROR: Pair style SNAP requires newton pair on (src/KOKKOS/pair_snap_kokkos_impl.h:73)
Last input line: run ${equil_step}
start: Fri Jan  9 06:27:00 EST 2026
end: Fri Jan  9 06:27:06 EST 2026
